rup/magic_series_2.rup
21:
22:21 19
23:19
24:
25:24 19
26:19
27:19 14
28:21 18 27
29:28
30:19 28 16
31:30
